n = 50;
C = 230;
w = [73,207,139,418,58,16,248,412,396,245,22,311,454,99,210,111,85,281,331,478,37,144,49,157,446,102,368,321,378,37,377,330,313,353,250,48,74,219,140,55,399,483,208,456,41,165,343,92,364,199];
p = [73,207,139,418,58,16,248,412,396,245,22,311,454,99,210,111,85,281,331,478,37,144,49,157,446,102,368,321,378,37,377,330,313,353,250,48,74,219,140,55,399,483,208,456,41,165,343,92,364,199];
